52721.0
90, 289, 342, 521, 534, 616, 781, 832, 953, 1364, 1409, 1845, 1866, 1965, 1972, 2499, 2558, 2565, 2622, 2632, 2776, 2937, 3017, 3045, 3085, 3097, 3127, 3238, 3266, 3284, 3412, 3424, 3635, 3791, 3816, 3869, 3893, 3901, 3905, 4066, 4226, 4687, 4691, 4714, 4788, 4833, 4993, 5152, 5250, 5261, 5328, 5383, 5479, 5579, 5647, 5691, 5778, 5814, 5862, 5866, 6009, 6096, 6122, 6210, 6321, 6384, 6397, 6615, 6621, 6968, 6978, 7038, 7117, 7247, 7287, 7314, 7456, 7540, 7807, 7840, 7868, 7959, 7973, 8018, 8103, 8174, 8260, 8343, 8346, 8401, 8419, 8740, 8812, 8843, 8857, 8937, 8975, 9245, 9286, 9302, 9350, 9356, 9423, 9497, 9730, 9987